%Global parameters 
max_wait_duration = 30;
same_vehicle_backward = 0;
number_of_places = 3;
number_of_patients = 1;
number_of_vehicles = 1;

%Places 
places_ID = [0, 1, 2];
places_category = [0, 1, 2];

%Vehicles 
vehicle_IDs = [3];
can_Take = [0];
starting_depot = [1];
ending_depot = [1];
capacity = [6];
vehicle_availability_start = [420];
vehicle_availability_end = [1200];
% Patients 
patients_IDs = [4];
patients_load = [1];
patients_category = [0];
patients_start_location = [2];
patients_destination = [0];
patients_end_location = [2];
rdv_time = [643];
rdv_duration = [23];
srv_duration = [3];
% Activities 
activities_patients_IDs = [4,4];
duration_of_trip = [19,19];
forward_or_backward = [ 1,0];
number_of_activities = 2;
start_location = [ 2,0];
end_location = [ 0,2];
distMatrix = [| 0, 16, 19|16, 0, 8|19, 8, 0|];